
  32    1
  10

   0   0   4 2 4 5 9 
   8   4   2 7 3 
   8   9   4 11 10 8 6 
  10   9   5 18 14 12 11 8 
   7  10   4 18 17 11 10 
   6  10   5 18 17 16 14 12 
   4  10   3 16 14 12 
  10   5   3 17 16 13 
   5   7   3 17 16 13 
   6   9   2 14 12 
   7   7   2 16 13 
   5   4   2 20 13 
   3   8   1 15 
   2   6   1 15 
   8  10   3 24 21 19 
   3  10   2 20 19 
   7  10   2 20 19 
   3   9   1 19 
   2   6   2 23 22 
   5   7   2 22 21 
   7   8   3 27 26 25 
   4   6   4 31 30 28 26 
   2  10   2 27 25 
   9   6   3 31 29 28 
   5   8   2 30 28 
   7   4   1 29 
   3  10   1 28 
   7   9   1 32
   8  10   1 32
   4   9   1 32
   4  10   1 32
   0   0   0 
